\ENCODING=ISO-8859-1
\Problem name: IloCplex

Maximize
 obj1: 644 Z_1 + 511 Z_2 + 238 Z_3 - X_11 - 11 X_12 - 4 X_13 - 7 X_14 - 8 X_15
       - 8 X_16 - 100 Y_12 - 132 Y_13 - 71 Y_14 - 77 Y_15 - 111 Y_16 - 5 I_11
       - 3 I_12 - 5 I_13 - 4 I_14 - 2 I_15 - I_16 - X_21 - 11 X_22 - 4 X_23
       - 7 X_24 - 8 X_25 - 8 X_26 - 100 Y_22 - 132 Y_23 - 71 Y_24 - 77 Y_25
       - 111 Y_26 - 5 I_21 - 3 I_22 - 5 I_23 - 4 I_24 - 2 I_25 - I_26 - X_31
       - 11 X_32 - 4 X_33 - 7 X_34 - 8 X_35 - 8 X_36 - 100 Y_32 - 132 Y_33
       - 71 Y_34 - 77 Y_35 - 111 Y_36 - 5 I_31 - 3 I_32 - 5 I_33 - 4 I_34
       - 2 I_35 - I_36 - 5 K_1_2_1 - 5 K_1_2_2 - 5 K_1_2_3 - 5 K_1_2_4
       - 5 K_1_2_5 - 5 K_1_2_6 - 5 K_1_3_1 - 5 K_1_3_2 - 5 K_1_3_3 - 5 K_1_3_4
       - 5 K_1_3_5 - 5 K_1_3_6 - 5 K_2_1_1 - 5 K_2_1_2 - 5 K_2_1_3 - 5 K_2_1_4
       - 5 K_2_1_5 - 5 K_2_1_6 - 5 K_2_3_1 - 5 K_2_3_2 - 5 K_2_3_3 - 5 K_2_3_4
       - 5 K_2_3_5 - 5 K_2_3_6 - 5 K_3_1_1 - 5 K_3_1_2 - 5 K_3_1_3 - 5 K_3_1_4
       - 5 K_3_1_5 - 5 K_3_1_6 - 5 K_3_2_1 - 5 K_3_2_2 - 5 K_3_2_3 - 5 K_3_2_4
       - 5 K_3_2_5 - 5 K_3_2_6
Subject To
 c1:  - 15 Z_1 - Z_2 - 20 Z_3 + X_11 - I_11 + K_1_2_1 - K_2_1_1  = 0
 c2:  - 15 Z_1 - Z_2 - 20 Z_3 + X_11 - I_11 + K_1_3_1 - K_3_1_1  = 0
 c3:  - 15 Z_1 - Z_2 - 20 Z_3 + X_21 - I_21 - K_1_2_1 + K_2_1_1  = 0
 c4:  - 15 Z_1 - Z_2 - 20 Z_3 + X_21 - I_21 + K_2_3_1 - K_3_2_1  = 0
 c5:  - 15 Z_1 - Z_2 - 20 Z_3 + X_31 - I_31 - K_1_3_1 + K_3_1_1  = 0
 c6:  - 15 Z_1 - Z_2 - 20 Z_3 + X_31 - I_31 - K_2_3_1 + K_3_2_1  = 0
 c7:  - 5 Z_1 - Z_2 - 8 Z_3 + X_12 + I_11 - I_12 + K_1_2_2 - K_2_1_2  = 0
 c8:  - 5 Z_1 - Z_2 - 8 Z_3 + X_12 + I_11 - I_12 + K_1_3_2 - K_3_1_2  = 0
 c9:  - 5 Z_1 - Z_2 - 8 Z_3 + X_22 + I_21 - I_22 - K_1_2_2 + K_2_1_2  = 0
 c10: - 5 Z_1 - Z_2 - 8 Z_3 + X_22 + I_21 - I_22 + K_2_3_2 - K_3_2_2  = 0
 c11: - 5 Z_1 - Z_2 - 8 Z_3 + X_32 + I_31 - I_32 - K_1_3_2 + K_3_1_2  = 0
 c12: - 5 Z_1 - Z_2 - 8 Z_3 + X_32 + I_31 - I_32 - K_2_3_2 + K_3_2_2  = 0
 c13: - 14 Z_1 - 11 Z_2 - Z_3 + X_13 + I_12 - I_13 + K_1_2_3 - K_2_1_3  = 0
 c14: - 14 Z_1 - 11 Z_2 - Z_3 + X_13 + I_12 - I_13 + K_1_3_3 - K_3_1_3  = 0
 c15: - 14 Z_1 - 11 Z_2 - Z_3 + X_23 + I_22 - I_23 - K_1_2_3 + K_2_1_3  = 0
 c16: - 14 Z_1 - 11 Z_2 - Z_3 + X_23 + I_22 - I_23 + K_2_3_3 - K_3_2_3  = 0
 c17: - 14 Z_1 - 11 Z_2 - Z_3 + X_33 + I_32 - I_33 - K_1_3_3 + K_3_1_3  = 0
 c18: - 14 Z_1 - 11 Z_2 - Z_3 + X_33 + I_32 - I_33 - K_2_3_3 + K_3_2_3  = 0
 c19: - 9 Z_1 - 17 Z_2 - 11 Z_3 + X_14 + I_13 - I_14 + K_1_2_4 - K_2_1_4  = 0
 c20: - 9 Z_1 - 17 Z_2 - 11 Z_3 + X_14 + I_13 - I_14 + K_1_3_4 - K_3_1_4  = 0
 c21: - 9 Z_1 - 17 Z_2 - 11 Z_3 + X_24 + I_23 - I_24 - K_1_2_4 + K_2_1_4  = 0
 c22: - 9 Z_1 - 17 Z_2 - 11 Z_3 + X_24 + I_23 - I_24 + K_2_3_4 - K_3_2_4  = 0
 c23: - 9 Z_1 - 17 Z_2 - 11 Z_3 + X_34 + I_33 - I_34 - K_1_3_4 + K_3_1_4  = 0
 c24: - 9 Z_1 - 17 Z_2 - 11 Z_3 + X_34 + I_33 - I_34 - K_2_3_4 + K_3_2_4  = 0
 c25: - 20 Z_1 - 3 Z_2 - Z_3 + X_15 + I_14 - I_15 + K_1_2_5 - K_2_1_5  = 0
 c26: - 20 Z_1 - 3 Z_2 - Z_3 + X_15 + I_14 - I_15 + K_1_3_5 - K_3_1_5  = 0
 c27: - 20 Z_1 - 3 Z_2 - Z_3 + X_25 + I_24 - I_25 - K_1_2_5 + K_2_1_5  = 0
 c28: - 20 Z_1 - 3 Z_2 - Z_3 + X_25 + I_24 - I_25 + K_2_3_5 - K_3_2_5  = 0
 c29: - 20 Z_1 - 3 Z_2 - Z_3 + X_35 + I_34 - I_35 - K_1_3_5 + K_3_1_5  = 0
 c30: - 20 Z_1 - 3 Z_2 - Z_3 + X_35 + I_34 - I_35 - K_2_3_5 + K_3_2_5  = 0
 c31: - 11 Z_1 - 14 Z_2 - 19 Z_3 + X_16 + I_15 - I_16 + K_1_2_6 - K_2_1_6  = 0
 c32: - 11 Z_1 - 14 Z_2 - 19 Z_3 + X_16 + I_15 - I_16 + K_1_3_6 - K_3_1_6  = 0
 c33: - 11 Z_1 - 14 Z_2 - 19 Z_3 + X_26 + I_25 - I_26 - K_1_2_6 + K_2_1_6  = 0
 c34: - 11 Z_1 - 14 Z_2 - 19 Z_3 + X_26 + I_25 - I_26 + K_2_3_6 - K_3_2_6  = 0
 c35: - 11 Z_1 - 14 Z_2 - 19 Z_3 + X_36 + I_35 - I_36 - K_1_3_6 + K_3_1_6  = 0
 c36: - 11 Z_1 - 14 Z_2 - 19 Z_3 + X_36 + I_35 - I_36 - K_2_3_6 + K_3_2_6  = 0
 c37: X_11 - 1000 Y_11 <= 0
 c38: X_12 - 1000 Y_12 <= 0
 c39: X_13 - 1000 Y_13 <= 0
 c40: X_14 - 1000 Y_14 <= 0
 c41: X_15 - 1000 Y_15 <= 0
 c42: X_16 - 1000 Y_16 <= 0
 c43: X_21 - 1000 Y_21 <= 0
 c44: X_22 - 1000 Y_22 <= 0
 c45: X_23 - 1000 Y_23 <= 0
 c46: X_24 - 1000 Y_24 <= 0
 c47: X_25 - 1000 Y_25 <= 0
 c48: X_26 - 1000 Y_26 <= 0
 c49: X_31 - 1000 Y_31 <= 0
 c50: X_32 - 1000 Y_32 <= 0
 c51: X_33 - 1000 Y_33 <= 0
 c52: X_34 - 1000 Y_34 <= 0
 c53: X_35 - 1000 Y_35 <= 0
 c54: X_36 - 1000 Y_36 <= 0
Bounds
 0 <= Z_1 <= 1
 0 <= Z_2 <= 1
 0 <= Z_3 <= 1
      X_11 >= 0
      X_12 >= 0
      X_13 >= 0
      X_14 >= 0
      X_15 >= 0
      X_16 >= 0
 0 <= Y_12 <= 1
 0 <= Y_13 <= 1
 0 <= Y_14 <= 1
 0 <= Y_15 <= 1
 0 <= Y_16 <= 1
      I_11 >= 0
      I_12 >= 0
      I_13 >= 0
      I_14 >= 0
      I_15 >= 0
      I_16 >= 0
      X_21 >= 0
      X_22 >= 0
      X_23 >= 0
      X_24 >= 0
      X_25 >= 0
      X_26 >= 0
 0 <= Y_22 <= 1
 0 <= Y_23 <= 1
 0 <= Y_24 <= 1
 0 <= Y_25 <= 1
 0 <= Y_26 <= 1
      I_21 >= 0
      I_22 >= 0
      I_23 >= 0
      I_24 >= 0
      I_25 >= 0
      I_26 >= 0
      X_31 >= 0
      X_32 >= 0
      X_33 >= 0
      X_34 >= 0
      X_35 >= 0
      X_36 >= 0
 0 <= Y_32 <= 1
 0 <= Y_33 <= 1
 0 <= Y_34 <= 1
 0 <= Y_35 <= 1
 0 <= Y_36 <= 1
      I_31 >= 0
      I_32 >= 0
      I_33 >= 0
      I_34 >= 0
      I_35 >= 0
      I_36 >= 0
      K_1_2_1 >= 0
      K_1_2_2 >= 0
      K_1_2_3 >= 0
      K_1_2_4 >= 0
      K_1_2_5 >= 0
      K_1_2_6 >= 0
      K_1_3_1 >= 0
      K_1_3_2 >= 0
      K_1_3_3 >= 0
      K_1_3_4 >= 0
      K_1_3_5 >= 0
      K_1_3_6 >= 0
      K_2_1_1 >= 0
      K_2_1_2 >= 0
      K_2_1_3 >= 0
      K_2_1_4 >= 0
      K_2_1_5 >= 0
      K_2_1_6 >= 0
      K_2_3_1 >= 0
      K_2_3_2 >= 0
      K_2_3_3 >= 0
      K_2_3_4 >= 0
      K_2_3_5 >= 0
      K_2_3_6 >= 0
      K_3_1_1 >= 0
      K_3_1_2 >= 0
      K_3_1_3 >= 0
      K_3_1_4 >= 0
      K_3_1_5 >= 0
      K_3_1_6 >= 0
      K_3_2_1 >= 0
      K_3_2_2 >= 0
      K_3_2_3 >= 0
      K_3_2_4 >= 0
      K_3_2_5 >= 0
      K_3_2_6 >= 0
 0 <= Y_11 <= 1
 0 <= Y_21 <= 1
 0 <= Y_31 <= 1
Binaries
 Z_1  Z_2  Z_3  Y_12  Y_13  Y_14  Y_15  Y_16  Y_22  Y_23  Y_24  Y_25  Y_26 
 Y_32  Y_33  Y_34  Y_35  Y_36  Y_11  Y_21  Y_31 
Generals
 X_11  X_12  X_13  X_14  X_15  X_16  I_11  I_12  I_13  I_14  I_15  I_16  X_21 
 X_22  X_23  X_24  X_25  X_26  I_21  I_22  I_23  I_24  I_25  I_26  X_31  X_32 
 X_33  X_34  X_35  X_36  I_31  I_32  I_33  I_34  I_35  I_36  K_1_2_1  K_1_2_2 
 K_1_2_3  K_1_2_4  K_1_2_5  K_1_2_6  K_1_3_1  K_1_3_2  K_1_3_3  K_1_3_4 
 K_1_3_5  K_1_3_6  K_2_1_1  K_2_1_2  K_2_1_3  K_2_1_4  K_2_1_5  K_2_1_6 
 K_2_3_1  K_2_3_2  K_2_3_3  K_2_3_4  K_2_3_5  K_2_3_6  K_3_1_1  K_3_1_2 
 K_3_1_3  K_3_1_4  K_3_1_5  K_3_1_6  K_3_2_1  K_3_2_2  K_3_2_3  K_3_2_4 
 K_3_2_5  K_3_2_6 
End
